c Random Network
p max    10      20
n         1  s
n        10  t
a       1       7      11
a       5       9      46
a       2       4       1
a       1       2      48
a       4       1      42
a       7       1      33
a       9       3      29
a       6       1      10
a       2       8      14
a       4       3       1
a       8       3      38
a       2       3       2
a       3       4      33
a       1       3      10
a      10       1      49
a       3       2      25
a       5       7      13
a       6       3      45
a       3       7      43
a       7      10       5
